c WARNING: for repeatability, setting FPU to use double precision
d VARIABLES            228582       
d CONSTRAINTS          845740       
c ============================[ Problem Statistics ]=============================
c |                                                                             |
c |  Number of variables:        228582                                         |
c |  Number of clauses:          845740                                         |
c |  Parse time:                   0.16 s                                       |
c |                                                                             |
c ============================[ Search Statistics ]==============================
c | Conflicts |          ORIGINAL         |          LEARNT          | Progress |
c |           |    Vars  Clauses Literals |    Limit  Clauses Lit/Cl |          |
c ===============================================================================
c |       100 |  187521   738922  1854815 |   270938      100      9 | 17.963 % |
c |       250 |  187521   738922  1854815 |   298031      250     10 | 17.963 % |
c |       475 |  187521   738922  1854815 |   327835      475     10 | 17.963 % |
c |       812 |  187521   738922  1854815 |   360618      812     10 | 17.963 % |
c |      1318 |  187521   738922  1854815 |   396680     1318     11 | 17.963 % |
c |      2077 |  187521   738922  1854815 |   436348     2077     11 | 17.963 % |
c |      3216 |  187521   738922  1854815 |   479983     3216     10 | 17.963 % |
c |      4924 |  187521   738922  1854815 |   527981     4924     10 | 17.963 % |
c |      7486 |  187521   738922  1854815 |   580779     7486     11 | 17.963 % |
c |     11330 |  187460   738586  1853974 |   638857    11197     15 | 17.990 % |
c |     17096 |  187400   738051  1852626 |   702743    16726     21 | 18.016 % |
c ===============================================================================
c restarts              : 63
c conflicts             : 18419          (2068 /sec)
c decisions             : 410580         (0.00 % random) (46088 /sec)
c propagations          : 60634238       (6806293 /sec)
c conflict literals     : 385774         (13.89 % deleted)
d RESTARTS             63
d FAILURES             18419        
d NODES                410580       
d BACKTRACKS           410580       
d PROPAGATIONS         60634238     
d NOGOODSIZE           20.94 
d MEMORY               70.00 
d TIME                 8.90856 

s UNSATISFIABLE
